188,67
118,4
99,96
4,69
37,13
176,36
5,18
196,8
27,16
17,70
189,12
17,7
114,76
174,34
126,44
100,81
182,15
126,53
135,84
175,55
140,26
16,79
172,87
113,73
195,2
146,9
38,50
137,9
121,22
90,31
117,14
18,94
90,2
78,20
114,16
65,57
180,22
197,2
149,78
38,25
37,87
61,5
89,68
143,87
41,90
116,75
84,21
161,55
50,100
160,29
